p cnf 24 960
1 2 3 4 0
-1 -2 -3 -4 0
2 3 4 5 0
-2 -3 -4 -5 0
3 4 5 6 0
-3 -4 -5 -6 0
4 5 6 7 0
-4 -5 -6 -7 0
5 6 7 8 0
-5 -6 -7 -8 0
6 7 8 9 0
-6 -7 -8 -9 0
7 8 9 10 0
-7 -8 -9 -10 0
8 9 10 11 0
-8 -9 -10 -11 0
9 10 11 12 0
-9 -10 -11 -12 0
10 11 12 13 0
-10 -11 -12 -13 0
11 12 13 14 0
-11 -12 -13 -14 0
12 13 14 15 0
-12 -13 -14 -15 0
13 14 15 16 0
-13 -14 -15 -16 0
14 15 16 17 0
-14 -15 -16 -17 0
15 16 17 18 0
-15 -16 -17 -18 0
16 17 18 19 0
-16 -17 -18 -19 0
17 18 19 20 0
-17 -18 -19 -20 0
18 19 20 21 0
-18 -19 -20 -21 0
19 20 21 22 0
-19 -20 -21 -22 0
20 21 22 23 0
-20 -21 -22 -23 0
21 22 23 24 0
-21 -22 -23 -24 0
22 23 24 1 0
-22 -23 -24 -1 0
23 24 1 2 0
-23 -24 -1 -2 0
24 1 2 3 0
-24 -1 -2 -3 0
1 3 5 7 0
-1 -3 -5 -7 0
2 4 6 8 0
-2 -4 -6 -8 0
3 5 7 9 0
-3 -5 -7 -9 0
4 6 8 10 0
-4 -6 -8 -10 0
5 7 9 11 0
-5 -7 -9 -11 0
6 8 10 12 0
-6 -8 -10 -12 0
7 9 11 13 0
-7 -9 -11 -13 0
8 10 12 14 0
-8 -10 -12 -14 0
9 11 13 15 0
-9 -11 -13 -15 0
10 12 14 16 0
-10 -12 -14 -16 0
11 13 15 17 0
-11 -13 -15 -17 0
12 14 16 18 0
-12 -14 -16 -18 0
13 15 17 19 0
-13 -15 -17 -19 0
14 16 18 20 0
-14 -16 -18 -20 0
15 17 19 21 0
-15 -17 -19 -21 0
16 18 20 22 0
-16 -18 -20 -22 0
17 19 21 23 0
-17 -19 -21 -23 0
18 20 22 24 0
-18 -20 -22 -24 0
19 21 23 1 0
-19 -21 -23 -1 0
20 22 24 2 0
-20 -22 -24 -2 0
21 23 1 3 0
-21 -23 -1 -3 0
22 24 2 4 0
-22 -24 -2 -4 0
23 1 3 5 0
-23 -1 -3 -5 0
24 2 4 6 0
-24 -2 -4 -6 0
1 4 7 10 0
-1 -4 -7 -10 0
2 5 8 11 0
-2 -5 -8 -11 0
3 6 9 12 0
-3 -6 -9 -12 0
4 7 10 13 0
-4 -7 -10 -13 0
5 8 11 14 0
-5 -8 -11 -14 0
6 9 12 15 0
-6 -9 -12 -15 0
7 10 13 16 0
-7 -10 -13 -16 0
8 11 14 17 0
-8 -11 -14 -17 0
9 12 15 18 0
-9 -12 -15 -18 0
10 13 16 19 0
-10 -13 -16 -19 0
11 14 17 20 0
-11 -14 -17 -20 0
12 15 18 21 0
-12 -15 -18 -21 0
13 16 19 22 0
-13 -16 -19 -22 0
14 17 20 23 0
-14 -17 -20 -23 0
15 18 21 24 0
-15 -18 -21 -24 0
16 19 22 1 0
-16 -19 -22 -1 0
17 20 23 2 0
-17 -20 -23 -2 0
18 21 24 3 0
-18 -21 -24 -3 0
19 22 1 4 0
-19 -22 -1 -4 0
20 23 2 5 0
-20 -23 -2 -5 0
21 24 3 6 0
-21 -24 -3 -6 0
22 1 4 7 0
-22 -1 -4 -7 0
23 2 5 8 0
-23 -2 -5 -8 0
24 3 6 9 0
-24 -3 -6 -9 0
1 5 9 13 0
-1 -5 -9 -13 0
2 6 10 14 0
-2 -6 -10 -14 0
3 7 11 15 0
-3 -7 -11 -15 0
4 8 12 16 0
-4 -8 -12 -16 0
5 9 13 17 0
-5 -9 -13 -17 0
6 10 14 18 0
-6 -10 -14 -18 0
7 11 15 19 0
-7 -11 -15 -19 0
8 12 16 20 0
-8 -12 -16 -20 0
9 13 17 21 0
-9 -13 -17 -21 0
10 14 18 22 0
-10 -14 -18 -22 0
11 15 19 23 0
-11 -15 -19 -23 0
12 16 20 24 0
-12 -16 -20 -24 0
13 17 21 1 0
-13 -17 -21 -1 0
14 18 22 2 0
-14 -18 -22 -2 0
15 19 23 3 0
-15 -19 -23 -3 0
16 20 24 4 0
-16 -20 -24 -4 0
17 21 1 5 0
-17 -21 -1 -5 0
18 22 2 6 0
-18 -22 -2 -6 0
19 23 3 7 0
-19 -23 -3 -7 0
20 24 4 8 0
-20 -24 -4 -8 0
21 1 5 9 0
-21 -1 -5 -9 0
22 2 6 10 0
-22 -2 -6 -10 0
23 3 7 11 0
-23 -3 -7 -11 0
24 4 8 12 0
-24 -4 -8 -12 0
1 6 11 16 0
-1 -6 -11 -16 0
2 7 12 17 0
-2 -7 -12 -17 0
3 8 13 18 0
-3 -8 -13 -18 0
4 9 14 19 0
-4 -9 -14 -19 0
5 10 15 20 0
-5 -10 -15 -20 0
6 11 16 21 0
-6 -11 -16 -21 0
7 12 17 22 0
-7 -12 -17 -22 0
8 13 18 23 0
-8 -13 -18 -23 0
9 14 19 24 0
-9 -14 -19 -24 0
10 15 20 1 0
-10 -15 -20 -1 0
11 16 21 2 0
-11 -16 -21 -2 0
12 17 22 3 0
-12 -17 -22 -3 0
13 18 23 4 0
-13 -18 -23 -4 0
14 19 24 5 0
-14 -19 -24 -5 0
15 20 1 6 0
-15 -20 -1 -6 0
16 21 2 7 0
-16 -21 -2 -7 0
17 22 3 8 0
-17 -22 -3 -8 0
18 23 4 9 0
-18 -23 -4 -9 0
19 24 5 10 0
-19 -24 -5 -10 0
20 1 6 11 0
-20 -1 -6 -11 0
21 2 7 12 0
-21 -2 -7 -12 0
22 3 8 13 0
-22 -3 -8 -13 0
23 4 9 14 0
-23 -4 -9 -14 0
24 5 10 15 0
-24 -5 -10 -15 0
1 7 13 19 0
-1 -7 -13 -19 0
2 8 14 20 0
-2 -8 -14 -20 0
3 9 15 21 0
-3 -9 -15 -21 0
4 10 16 22 0
-4 -10 -16 -22 0
5 11 17 23 0
-5 -11 -17 -23 0
6 12 18 24 0
-6 -12 -18 -24 0
7 13 19 1 0
-7 -13 -19 -1 0
8 14 20 2 0
-8 -14 -20 -2 0
9 15 21 3 0
-9 -15 -21 -3 0
10 16 22 4 0
-10 -16 -22 -4 0
11 17 23 5 0
-11 -17 -23 -5 0
12 18 24 6 0
-12 -18 -24 -6 0
13 19 1 7 0
-13 -19 -1 -7 0
14 20 2 8 0
-14 -20 -2 -8 0
15 21 3 9 0
-15 -21 -3 -9 0
16 22 4 10 0
-16 -22 -4 -10 0
17 23 5 11 0
-17 -23 -5 -11 0
18 24 6 12 0
-18 -24 -6 -12 0
19 1 7 13 0
-19 -1 -7 -13 0
20 2 8 14 0
-20 -2 -8 -14 0
21 3 9 15 0
-21 -3 -9 -15 0
22 4 10 16 0
-22 -4 -10 -16 0
23 5 11 17 0
-23 -5 -11 -17 0
24 6 12 18 0
-24 -6 -12 -18 0
1 8 15 22 0
-1 -8 -15 -22 0
2 9 16 23 0
-2 -9 -16 -23 0
3 10 17 24 0
-3 -10 -17 -24 0
4 11 18 1 0
-4 -11 -18 -1 0
5 12 19 2 0
-5 -12 -19 -2 0
6 13 20 3 0
-6 -13 -20 -3 0
7 14 21 4 0
-7 -14 -21 -4 0
8 15 22 5 0
-8 -15 -22 -5 0
9 16 23 6 0
-9 -16 -23 -6 0
10 17 24 7 0
-10 -17 -24 -7 0
11 18 1 8 0
-11 -18 -1 -8 0
12 19 2 9 0
-12 -19 -2 -9 0
13 20 3 10 0
-13 -20 -3 -10 0
14 21 4 11 0
-14 -21 -4 -11 0
15 22 5 12 0
-15 -22 -5 -12 0
16 23 6 13 0
-16 -23 -6 -13 0
17 24 7 14 0
-17 -24 -7 -14 0
18 1 8 15 0
-18 -1 -8 -15 0
19 2 9 16 0
-19 -2 -9 -16 0
20 3 10 17 0
-20 -3 -10 -17 0
21 4 11 18 0
-21 -4 -11 -18 0
22 5 12 19 0
-22 -5 -12 -19 0
23 6 13 20 0
-23 -6 -13 -20 0
24 7 14 21 0
-24 -7 -14 -21 0
1 10 19 4 0
-1 -10 -19 -4 0
2 11 20 5 0
-2 -11 -20 -5 0
3 12 21 6 0
-3 -12 -21 -6 0
4 13 22 7 0
-4 -13 -22 -7 0
5 14 23 8 0
-5 -14 -23 -8 0
6 15 24 9 0
-6 -15 -24 -9 0
7 16 1 10 0
-7 -16 -1 -10 0
8 17 2 11 0
-8 -17 -2 -11 0
9 18 3 12 0
-9 -18 -3 -12 0
10 19 4 13 0
-10 -19 -4 -13 0
11 20 5 14 0
-11 -20 -5 -14 0
12 21 6 15 0
-12 -21 -6 -15 0
13 22 7 16 0
-13 -22 -7 -16 0
14 23 8 17 0
-14 -23 -8 -17 0
15 24 9 18 0
-15 -24 -9 -18 0
16 1 10 19 0
-16 -1 -10 -19 0
17 2 11 20 0
-17 -2 -11 -20 0
18 3 12 21 0
-18 -3 -12 -21 0
19 4 13 22 0
-19 -4 -13 -22 0
20 5 14 23 0
-20 -5 -14 -23 0
21 6 15 24 0
-21 -6 -15 -24 0
22 7 16 1 0
-22 -7 -16 -1 0
23 8 17 2 0
-23 -8 -17 -2 0
24 9 18 3 0
-24 -9 -18 -3 0
1 11 21 7 0
-1 -11 -21 -7 0
2 12 22 8 0
-2 -12 -22 -8 0
3 13 23 9 0
-3 -13 -23 -9 0
4 14 24 10 0
-4 -14 -24 -10 0
5 15 1 11 0
-5 -15 -1 -11 0
6 16 2 12 0
-6 -16 -2 -12 0
7 17 3 13 0
-7 -17 -3 -13 0
8 18 4 14 0
-8 -18 -4 -14 0
9 19 5 15 0
-9 -19 -5 -15 0
10 20 6 16 0
-10 -20 -6 -16 0
11 21 7 17 0
-11 -21 -7 -17 0
12 22 8 18 0
-12 -22 -8 -18 0
13 23 9 19 0
-13 -23 -9 -19 0
14 24 10 20 0
-14 -24 -10 -20 0
15 1 11 21 0
-15 -1 -11 -21 0
16 2 12 22 0
-16 -2 -12 -22 0
17 3 13 23 0
-17 -3 -13 -23 0
18 4 14 24 0
-18 -4 -14 -24 0
19 5 15 1 0
-19 -5 -15 -1 0
20 6 16 2 0
-20 -6 -16 -2 0
21 7 17 3 0
-21 -7 -17 -3 0
22 8 18 4 0
-22 -8 -18 -4 0
23 9 19 5 0
-23 -9 -19 -5 0
24 10 20 6 0
-24 -10 -20 -6 0
1 12 23 10 0
-1 -12 -23 -10 0
2 13 24 11 0
-2 -13 -24 -11 0
3 14 1 12 0
-3 -14 -1 -12 0
4 15 2 13 0
-4 -15 -2 -13 0
5 16 3 14 0
-5 -16 -3 -14 0
6 17 4 15 0
-6 -17 -4 -15 0
7 18 5 16 0
-7 -18 -5 -16 0
8 19 6 17 0
-8 -19 -6 -17 0
9 20 7 18 0
-9 -20 -7 -18 0
10 21 8 19 0
-10 -21 -8 -19 0
11 22 9 20 0
-11 -22 -9 -20 0
12 23 10 21 0
-12 -23 -10 -21 0
13 24 11 22 0
-13 -24 -11 -22 0
14 1 12 23 0
-14 -1 -12 -23 0
15 2 13 24 0
-15 -2 -13 -24 0
16 3 14 1 0
-16 -3 -14 -1 0
17 4 15 2 0
-17 -4 -15 -2 0
18 5 16 3 0
-18 -5 -16 -3 0
19 6 17 4 0
-19 -6 -17 -4 0
20 7 18 5 0
-20 -7 -18 -5 0
21 8 19 6 0
-21 -8 -19 -6 0
22 9 20 7 0
-22 -9 -20 -7 0
23 10 21 8 0
-23 -10 -21 -8 0
24 11 22 9 0
-24 -11 -22 -9 0
1 14 3 16 0
-1 -14 -3 -16 0
2 15 4 17 0
-2 -15 -4 -17 0
3 16 5 18 0
-3 -16 -5 -18 0
4 17 6 19 0
-4 -17 -6 -19 0
5 18 7 20 0
-5 -18 -7 -20 0
6 19 8 21 0
-6 -19 -8 -21 0
7 20 9 22 0
-7 -20 -9 -22 0
8 21 10 23 0
-8 -21 -10 -23 0
9 22 11 24 0
-9 -22 -11 -24 0
10 23 12 1 0
-10 -23 -12 -1 0
11 24 13 2 0
-11 -24 -13 -2 0
12 1 14 3 0
-12 -1 -14 -3 0
13 2 15 4 0
-13 -2 -15 -4 0
14 3 16 5 0
-14 -3 -16 -5 0
15 4 17 6 0
-15 -4 -17 -6 0
16 5 18 7 0
-16 -5 -18 -7 0
17 6 19 8 0
-17 -6 -19 -8 0
18 7 20 9 0
-18 -7 -20 -9 0
19 8 21 10 0
-19 -8 -21 -10 0
20 9 22 11 0
-20 -9 -22 -11 0
21 10 23 12 0
-21 -10 -23 -12 0
22 11 24 13 0
-22 -11 -24 -13 0
23 12 1 14 0
-23 -12 -1 -14 0
24 13 2 15 0
-24 -13 -2 -15 0
1 15 5 19 0
-1 -15 -5 -19 0
2 16 6 20 0
-2 -16 -6 -20 0
3 17 7 21 0
-3 -17 -7 -21 0
4 18 8 22 0
-4 -18 -8 -22 0
5 19 9 23 0
-5 -19 -9 -23 0
6 20 10 24 0
-6 -20 -10 -24 0
7 21 11 1 0
-7 -21 -11 -1 0
8 22 12 2 0
-8 -22 -12 -2 0
9 23 13 3 0
-9 -23 -13 -3 0
10 24 14 4 0
-10 -24 -14 -4 0
11 1 15 5 0
-11 -1 -15 -5 0
12 2 16 6 0
-12 -2 -16 -6 0
13 3 17 7 0
-13 -3 -17 -7 0
14 4 18 8 0
-14 -4 -18 -8 0
15 5 19 9 0
-15 -5 -19 -9 0
16 6 20 10 0
-16 -6 -20 -10 0
17 7 21 11 0
-17 -7 -21 -11 0
18 8 22 12 0
-18 -8 -22 -12 0
19 9 23 13 0
-19 -9 -23 -13 0
20 10 24 14 0
-20 -10 -24 -14 0
21 11 1 15 0
-21 -11 -1 -15 0
22 12 2 16 0
-22 -12 -2 -16 0
23 13 3 17 0
-23 -13 -3 -17 0
24 14 4 18 0
-24 -14 -4 -18 0
1 16 7 22 0
-1 -16 -7 -22 0
2 17 8 23 0
-2 -17 -8 -23 0
3 18 9 24 0
-3 -18 -9 -24 0
4 19 10 1 0
-4 -19 -10 -1 0
5 20 11 2 0
-5 -20 -11 -2 0
6 21 12 3 0
-6 -21 -12 -3 0
7 22 13 4 0
-7 -22 -13 -4 0
8 23 14 5 0
-8 -23 -14 -5 0
9 24 15 6 0
-9 -24 -15 -6 0
10 1 16 7 0
-10 -1 -16 -7 0
11 2 17 8 0
-11 -2 -17 -8 0
12 3 18 9 0
-12 -3 -18 -9 0
13 4 19 10 0
-13 -4 -19 -10 0
14 5 20 11 0
-14 -5 -20 -11 0
15 6 21 12 0
-15 -6 -21 -12 0
16 7 22 13 0
-16 -7 -22 -13 0
17 8 23 14 0
-17 -8 -23 -14 0
18 9 24 15 0
-18 -9 -24 -15 0
19 10 1 16 0
-19 -10 -1 -16 0
20 11 2 17 0
-20 -11 -2 -17 0
21 12 3 18 0
-21 -12 -3 -18 0
22 13 4 19 0
-22 -13 -4 -19 0
23 14 5 20 0
-23 -14 -5 -20 0
24 15 6 21 0
-24 -15 -6 -21 0
1 18 11 4 0
-1 -18 -11 -4 0
2 19 12 5 0
-2 -19 -12 -5 0
3 20 13 6 0
-3 -20 -13 -6 0
4 21 14 7 0
-4 -21 -14 -7 0
5 22 15 8 0
-5 -22 -15 -8 0
6 23 16 9 0
-6 -23 -16 -9 0
7 24 17 10 0
-7 -24 -17 -10 0
8 1 18 11 0
-8 -1 -18 -11 0
9 2 19 12 0
-9 -2 -19 -12 0
10 3 20 13 0
-10 -3 -20 -13 0
11 4 21 14 0
-11 -4 -21 -14 0
12 5 22 15 0
-12 -5 -22 -15 0
13 6 23 16 0
-13 -6 -23 -16 0
14 7 24 17 0
-14 -7 -24 -17 0
15 8 1 18 0
-15 -8 -1 -18 0
16 9 2 19 0
-16 -9 -2 -19 0
17 10 3 20 0
-17 -10 -3 -20 0
18 11 4 21 0
-18 -11 -4 -21 0
19 12 5 22 0
-19 -12 -5 -22 0
20 13 6 23 0
-20 -13 -6 -23 0
21 14 7 24 0
-21 -14 -7 -24 0
22 15 8 1 0
-22 -15 -8 -1 0
23 16 9 2 0
-23 -16 -9 -2 0
24 17 10 3 0
-24 -17 -10 -3 0
1 19 13 7 0
-1 -19 -13 -7 0
2 20 14 8 0
-2 -20 -14 -8 0
3 21 15 9 0
-3 -21 -15 -9 0
4 22 16 10 0
-4 -22 -16 -10 0
5 23 17 11 0
-5 -23 -17 -11 0
6 24 18 12 0
-6 -24 -18 -12 0
7 1 19 13 0
-7 -1 -19 -13 0
8 2 20 14 0
-8 -2 -20 -14 0
9 3 21 15 0
-9 -3 -21 -15 0
10 4 22 16 0
-10 -4 -22 -16 0
11 5 23 17 0
-11 -5 -23 -17 0
12 6 24 18 0
-12 -6 -24 -18 0
13 7 1 19 0
-13 -7 -1 -19 0
14 8 2 20 0
-14 -8 -2 -20 0
15 9 3 21 0
-15 -9 -3 -21 0
16 10 4 22 0
-16 -10 -4 -22 0
17 11 5 23 0
-17 -11 -5 -23 0
18 12 6 24 0
-18 -12 -6 -24 0
19 13 7 1 0
-19 -13 -7 -1 0
20 14 8 2 0
-20 -14 -8 -2 0
21 15 9 3 0
-21 -15 -9 -3 0
22 16 10 4 0
-22 -16 -10 -4 0
23 17 11 5 0
-23 -17 -11 -5 0
24 18 12 6 0
-24 -18 -12 -6 0
1 20 15 10 0
-1 -20 -15 -10 0
2 21 16 11 0
-2 -21 -16 -11 0
3 22 17 12 0
-3 -22 -17 -12 0
4 23 18 13 0
-4 -23 -18 -13 0
5 24 19 14 0
-5 -24 -19 -14 0
6 1 20 15 0
-6 -1 -20 -15 0
7 2 21 16 0
-7 -2 -21 -16 0
8 3 22 17 0
-8 -3 -22 -17 0
9 4 23 18 0
-9 -4 -23 -18 0
10 5 24 19 0
-10 -5 -24 -19 0
11 6 1 20 0
-11 -6 -1 -20 0
12 7 2 21 0
-12 -7 -2 -21 0
13 8 3 22 0
-13 -8 -3 -22 0
14 9 4 23 0
-14 -9 -4 -23 0
15 10 5 24 0
-15 -10 -5 -24 0
16 11 6 1 0
-16 -11 -6 -1 0
17 12 7 2 0
-17 -12 -7 -2 0
18 13 8 3 0
-18 -13 -8 -3 0
19 14 9 4 0
-19 -14 -9 -4 0
20 15 10 5 0
-20 -15 -10 -5 0
21 16 11 6 0
-21 -16 -11 -6 0
22 17 12 7 0
-22 -17 -12 -7 0
23 18 13 8 0
-23 -18 -13 -8 0
24 19 14 9 0
-24 -19 -14 -9 0
1 21 17 13 0
-1 -21 -17 -13 0
2 22 18 14 0
-2 -22 -18 -14 0
3 23 19 15 0
-3 -23 -19 -15 0
4 24 20 16 0
-4 -24 -20 -16 0
5 1 21 17 0
-5 -1 -21 -17 0
6 2 22 18 0
-6 -2 -22 -18 0
7 3 23 19 0
-7 -3 -23 -19 0
8 4 24 20 0
-8 -4 -24 -20 0
9 5 1 21 0
-9 -5 -1 -21 0
10 6 2 22 0
-10 -6 -2 -22 0
11 7 3 23 0
-11 -7 -3 -23 0
12 8 4 24 0
-12 -8 -4 -24 0
13 9 5 1 0
-13 -9 -5 -1 0
14 10 6 2 0
-14 -10 -6 -2 0
15 11 7 3 0
-15 -11 -7 -3 0
16 12 8 4 0
-16 -12 -8 -4 0
17 13 9 5 0
-17 -13 -9 -5 0
18 14 10 6 0
-18 -14 -10 -6 0
19 15 11 7 0
-19 -15 -11 -7 0
20 16 12 8 0
-20 -16 -12 -8 0
21 17 13 9 0
-21 -17 -13 -9 0
22 18 14 10 0
-22 -18 -14 -10 0
23 19 15 11 0
-23 -19 -15 -11 0
24 20 16 12 0
-24 -20 -16 -12 0
1 22 19 16 0
-1 -22 -19 -16 0
2 23 20 17 0
-2 -23 -20 -17 0
3 24 21 18 0
-3 -24 -21 -18 0
4 1 22 19 0
-4 -1 -22 -19 0
5 2 23 20 0
-5 -2 -23 -20 0
6 3 24 21 0
-6 -3 -24 -21 0
7 4 1 22 0
-7 -4 -1 -22 0
8 5 2 23 0
-8 -5 -2 -23 0
9 6 3 24 0
-9 -6 -3 -24 0
10 7 4 1 0
-10 -7 -4 -1 0
11 8 5 2 0
-11 -8 -5 -2 0
12 9 6 3 0
-12 -9 -6 -3 0
13 10 7 4 0
-13 -10 -7 -4 0
14 11 8 5 0
-14 -11 -8 -5 0
15 12 9 6 0
-15 -12 -9 -6 0
16 13 10 7 0
-16 -13 -10 -7 0
17 14 11 8 0
-17 -14 -11 -8 0
18 15 12 9 0
-18 -15 -12 -9 0
19 16 13 10 0
-19 -16 -13 -10 0
20 17 14 11 0
-20 -17 -14 -11 0
21 18 15 12 0
-21 -18 -15 -12 0
22 19 16 13 0
-22 -19 -16 -13 0
23 20 17 14 0
-23 -20 -17 -14 0
24 21 18 15 0
-24 -21 -18 -15 0
1 23 21 19 0
-1 -23 -21 -19 0
2 24 22 20 0
-2 -24 -22 -20 0
3 1 23 21 0
-3 -1 -23 -21 0
4 2 24 22 0
-4 -2 -24 -22 0
5 3 1 23 0
-5 -3 -1 -23 0
6 4 2 24 0
-6 -4 -2 -24 0
7 5 3 1 0
-7 -5 -3 -1 0
8 6 4 2 0
-8 -6 -4 -2 0
9 7 5 3 0
-9 -7 -5 -3 0
10 8 6 4 0
-10 -8 -6 -4 0
11 9 7 5 0
-11 -9 -7 -5 0
12 10 8 6 0
-12 -10 -8 -6 0
13 11 9 7 0
-13 -11 -9 -7 0
14 12 10 8 0
-14 -12 -10 -8 0
15 13 11 9 0
-15 -13 -11 -9 0
16 14 12 10 0
-16 -14 -12 -10 0
17 15 13 11 0
-17 -15 -13 -11 0
18 16 14 12 0
-18 -16 -14 -12 0
19 17 15 13 0
-19 -17 -15 -13 0
20 18 16 14 0
-20 -18 -16 -14 0
21 19 17 15 0
-21 -19 -17 -15 0
22 20 18 16 0
-22 -20 -18 -16 0
23 21 19 17 0
-23 -21 -19 -17 0
24 22 20 18 0
-24 -22 -20 -18 0
1 24 23 22 0
-1 -24 -23 -22 0
2 1 24 23 0
-2 -1 -24 -23 0
3 2 1 24 0
-3 -2 -1 -24 0
4 3 2 1 0
-4 -3 -2 -1 0
5 4 3 2 0
-5 -4 -3 -2 0
6 5 4 3 0
-6 -5 -4 -3 0
7 6 5 4 0
-7 -6 -5 -4 0
8 7 6 5 0
-8 -7 -6 -5 0
9 8 7 6 0
-9 -8 -7 -6 0
10 9 8 7 0
-10 -9 -8 -7 0
11 10 9 8 0
-11 -10 -9 -8 0
12 11 10 9 0
-12 -11 -10 -9 0
13 12 11 10 0
-13 -12 -11 -10 0
14 13 12 11 0
-14 -13 -12 -11 0
15 14 13 12 0
-15 -14 -13 -12 0
16 15 14 13 0
-16 -15 -14 -13 0
17 16 15 14 0
-17 -16 -15 -14 0
18 17 16 15 0
-18 -17 -16 -15 0
19 18 17 16 0
-19 -18 -17 -16 0
20 19 18 17 0
-20 -19 -18 -17 0
21 20 19 18 0
-21 -20 -19 -18 0
22 21 20 19 0
-22 -21 -20 -19 0
23 22 21 20 0
-23 -22 -21 -20 0
24 23 22 21 0
-24 -23 -22 -21 0
